x05m05e0t1tp5_03
3288
3288
3288
3288
3288
3288
3293
3293
3293
3293
3293
3293
3293
3293
3293
3293
3293
3293
3293
3293
3293
3379
3379
3379
3379
3379
3379
3379
3379
3379
3379
3379
3379
3379
3379
3379
3379
3379
3379
3379
3379
3379
3379
3379
3379
3379
3379
3379
3379
3379
3379
3379
3379
3379
3379
3379
3379
3379
3379
3379
3379
3379
3379
3379
3379
3379
3379
3379
3379
3379
3379
3379
3379
3379
3379
3379
3379
3379
3379
3379
3379
3379
3379
3379
3437
3437
3437
3437
3437
3437
3438
3438
3438
3438
3438
3438
3438
3438
3438
3438
3438
3465
3465
3465
3465
3465
3465
3465
3465
3465
3465
3465
3465
3465
3465
3465
3465
3465
3465
3465
3465
3465
3465
3465
3465
3465
3465
3465
3465
3465
3465
3465
3465
3465
3465
3465
3465
3465
3465
3465
3465
3465
3465
3465
3465
3465
3465
3465
3465
3465
3465
3465
3465
3465
3465
3465
3465
3465
3465
3465
3465
3465
3465
3465
3465
3465
3465
3465
3465
3465
3465
3465
3465
3465
3465
3465
3465
3465
3465
3465
3465
3465
3465
3465
3465
3465
3465
3465
3465
3465
3465
3465
3465
3465
3465
3465
3465
3465
3465
3465
3465
3465
3465
3465
3465
3465
3465
3465
3465
3465
3465
3465
3465
3465
3465
3465
3465
3465
3465
3465
3465
3465
3465
3465
3465
3465
3465
3465
3465
3465
3465
3465
3465
3465
3465
3465
3465
3465
3465
3465
3465
3465
3465
3465
3465
3465
3465
3465
3465
3465
3465
3465
3465
3465
3465
3465
3465
3465
3465
3465
3465
3465
3465
3465
3465
3465
3465
3465
3465
3465
3465
3465
3465
3465
3465
3465
3465
3465
3465
3465
3465
3465
3465
3465
3465
3469
3469
3469
3469
3469
3469
3469
3469
3469
3469
3469
3469
3469
3469
3469
3469
3469
3469
3469
3469
3469
3469
3469
3469
3469
3469
3469
3469
3469
3469
3469
3469
3469
3469
3469
3469
3469
3469
3469
3469
3469
3469
3469
3469
3469
3469
3469
3469
3469
3469
3469
3469
3469
3469
3469
3469
3469
3469
3469
3469
3469
3469
3469
3469
3469
3469
3469
3469
3469
3469
3469
3469
3469
3469
3469
3469
3469
3469
3469
3469
3469
3469
3469
3469
3469
3469
3469
3536
3536
3536
3536
3536
3536
3536
3536
3536
3536
3536
3536
3536
3536
3536
3536
3536
3536
3536
3536
3536
3536
3536
3536
3536
3536
3536
3536
3536
3536
3536
3536
3536
3536
3536
3536
3536
3536
3536
3536
3536
3536
3536
3536
3536
3536
3536
3536
3536
3536
3536
3536
3536
3536
3536
3536
3536
3536
3536
3536
3536
3536
3536
3536
3536
3536
3536
3536
3536
3536
3536
3536
3536
3536
3536
3536
3536
3536
3536
3536
3536
3536
3536
3536
3536
3536
3536
3536
3536
3536
3536
3536
3536
3536
3536
3536
3536
3536
3536
3536
3536
3536
3536
3536
3536
3536
3536
3536
3536
3536
3536
3536
3536
3536
3536
3536
3536
3536
3536
3536
3536
3536
3536
3536
3536
3536
3536
3536
3536
3536
3536
3536
3536
3536
3536
3536
3536
3536
3536
3536
3536
3536
3536
3536
3536
3536
3536
3536
3536
3536
3536
3536
3536
3536
3536
3536
3536
3536
3536
3536
3536
3536
3536
3536
3536
3536
3536
3536
3536
3536
3536
3536
3536
3536
3536
3536
3536
3536
3536
3536
3536
3536
3536
3536
3536
3536
3536
3536
3536
3536
3536
3536
3536
3536
3536
3536
3536
3536
3536
3536
3536
3536
3536
3536
3536
3536
3536
3536
3536
3536
3536
3536
3536
3536
3536
3536
3536
3536
3536
3536
3536
3536
3536
3536
3536
3536
3536
3536
3536
3536
3536
3536
3536
3536
3536
3536
3536
3536
3536
3536
3536
3536
3536
3536
3536
3536
3536
3536
3536
3536
3536
3536
3536
3536
3536
3536
3536
3536
3536
3536
3536
3536
3536
3536
3536
3536
3536
3536
3536
3536
3536
3536
3536
3536
3536
3536
3536
3536
3536
3536
3536
3536
3536
3536
3536
3536
3536
3536
3536
3536
3536
3536
3536
3536
3536
3536
3536
3536
3536
3536
3536
3536
3536
3536
3536
3536
3536
3536
3536
3536
3536
3536
3536
3536
3536
3536
3536
3536
3536
3536
3536
3536
3536
3536
3536
3536
3536
3536
3536
3536
3536
3536
3536
3536
3536
3536
3536
3536
3536
3536
3536
3536
3536
3536
3536
3536
3536
3536
3536
3536
3536
3536
3536
3536
3536
3536
3536
3536
3536
3536
3536
3536
3536
3536
3536
3536
3536
3536
3536
3536
3536
3536
3536
3536
3536
3536
3536
3536
3536
3536
3536
3536
3536
3536
3536
3536
3536
3536
3536
3536
3536
3536
3536
3536
3536
3536
3536
3536
3536
3536
3536
3536
3536
3536
3536
3536
3536
3536
3536
3536
3536
3536
3536
3536
3536
3536
3536
3536
3536
3536
3536
3536
3536
3536
3536
3536
3536
3536
3536
3536
3536
3536
3536
3536
3536
3536
3536
3536
3536
3536
3536
3536
3536
3536
3536
3536
3536
3536
3536
3536
3536
3536
3536
3536
3536
3536
3536
3536
3536
3536
3536
3536
3536
3536
3536
3536
3536
3589
3589
3589
3589
3589
3589
3589
3589
3589
3589
3589
3589
3589
3589
3589
3589
3589
3589
3589
3589
3589
3589
3589
3589
3589
3589
3589
3589
3589
3589
3589
3589
3589
3589
3589
3589
3589
3589
3589
3589
3589
3589
3589
3589
3589
3589
3589
3589
3589
3589
3589
3589
3589
3589
3589
3589
3589
3589
3589
3589
3589
3589
3589
3589
3589
3589
3589
3589
3589
3589
3589
3589
3589
3589
3589
3589
3589
3589
3589
3589
3589
3589
3589
3589
3589
3589
3589
3589
3589
3589
3589
3589
3589
3589
3589
3589
3589
3589
3589
3589
3589
3589
3589
3589
3589
3589
3589
3589
3589
3589
3589
3589
3589
3589
3589
3589
3589
3589
3589
3589
3589
3589
3589
3589
3589
3589
3589
3589
3589
3589
3589
3589
3589
3589
3589
3589
3589
3589
3589
3589
3589
3589
3589
3589
3589
3589
3589
3589
3589
3589
3589
3589
3589
3589
3589
3589
3589
3589
3589
3589
3589
